project_3/Examples/JobShop-with-Dijsunctive-Listing2.3.8/i08.dzn
% Instância do TP1: i08

% parâmetros
jobs = 8;
tasks = 2;

% matriz de durações das tasks
d = [|6,  9       % job 1
     |4,  4       % job 2
     |4,  1       % job 3
     |4,  7       % job 4
     |4,  2       % job 5
     |9,  8       % job 6
     |5,  4       % job 7
     |5,  9   |]; % job 8
