project_1/Instances/i08
8
 6  9
 4  4
 4  1
 4  7
 4  2
 9  8
 5  4
 5  9
